; benchmark generated from python API
(set-info :status unknown)
(declare-fun L_0 () Real)
(declare-fun C () Real)
(declare-fun B () Real)
(declare-fun S_2 () Real)
(declare-fun L_1 () Real)
(declare-fun A_2 () Real)
(declare-fun L_2 () Real)
(declare-fun S_3 () Real)
(declare-fun A_3 () Real)
(declare-fun L_3 () Real)
(declare-fun S_1 () Real)
(declare-fun A_1 () Real)
(declare-fun A_4 () Real)
(declare-fun S_4 () Real)
(declare-fun S_0 () Real)
(declare-fun A_0 () Real)
(assert
 (let (($x34 (>= L_0 0.0)))
 (let (($x515 (>= C 5.0)))
 (let (($x542 (>= B 5.0)))
 (let (($x61 (= L_2 L_1)))
 (let (($x1667 (or $x61 (not (<= (+ A_2 (* (- 1.0) L_1) (* (- 1.0) S_2)) B)))))
 (let (($x868 (<= (+ A_2 (* (- 1.0) L_1) (* (- 1.0) S_2)) B)))
 (let (($x1462 (not (= L_1 L_2))))
 (let (($x863 (<= (+ A_3 (* (- 1.0) L_2) (* (- 1.0) S_3)) B)))
 (let (($x1289 (not (= L_2 L_3))))
 (let (($x873 (<= (+ A_1 (* (- 1.0) L_0) (* (- 1.0) S_1)) B)))
 (let (($x1144 (not (= L_0 L_1))))
 (let ((?x505 (+ S_2 C)))
 (let ((?x486 (* (- 1.0) L_3)))
 (let ((?x487 (+ A_3 ?x486)))
 (let ((?x789 (+ S_3 C)))
 (let ((?x811 (+ A_4 ?x486)))
 (let (($x339 (<= ?x811 ?x789)))
 (let ((?x609 (+ S_0 C)))
 (let ((?x512 (* (- 1.0) L_1)))
 (let ((?x513 (+ A_1 ?x512)))
 (let (($x51 (= L_1 L_0)))
 (let (($x71 (= L_3 L_2)))
 (let ((?x585 (+ S_1 C)))
 (let ((?x499 (* (- 1.0) L_2)))
 (let ((?x500 (+ A_2 ?x499)))
 (let (($x119 (>= A_1 A_0)))
 (let (($x120 (>= A_2 A_1)))
 (let (($x121 (>= A_3 A_2)))
 (let (($x122 (>= A_4 A_3)))
 (and $x122 $x121 $x120 $x119 (<= S_0 (+ A_0 (* (- 1.0) L_0))) (= S_2 (ite (<= ?x500 ?x585) ?x500 ?x585)) (or $x71 (= L_3 (+ A_3 (* (- 1.0) S_3) (* (- 1.0) B)))) (or $x51 (= L_1 (+ A_1 (* (- 1.0) S_1) (* (- 1.0) B)))) (or (not $x339) (<= (+ A_4 ?x486 (* (- 1.0) S_4)) B)) (= S_1 (ite (<= ?x513 ?x609) ?x513 ?x609)) (= S_4 (ite $x339 ?x811 ?x789)) (= S_3 (ite (<= ?x487 ?x505) ?x487 ?x505)) (or $x71 (not $x863)) (or $x51 (not $x873)) (or $x1144 $x873) (or $x1289 $x863) (or $x61 (= L_2 (+ A_2 (* (- 1.0) S_2) (* (- 1.0) B)))) (or $x1462 $x868) $x1667 $x542 $x515 $x34)))))))))))))))))))))))))))))))
(check-sat)
